      PREC = Normal
     ENCUT = 180
    NWRITE = 2 
    IBRION = 0
      ISYM = 0
     SMASS = 0
     POTIM = 2.0
    MDALGO = 2
     TEBEG = 800
       NSW = 100000
    NELMIN = 4
      NELM = 100
    ISMEAR = 0
     SIGMA = 0.01
     EDIFF = 1e-5
    MAXMIX = 40
     IALGO = 38
     LREAL = AUTO
       GGA = PS
     LWAVE = .FALSE.
    LCHARG = .FALSE.
     NCORE = 2
