Automatic mesh
0
Monkhorst-pack
     2     2     2
     0.    0.    0.
