Fd-3m (227) / F 4d 2 3 -1d (525)
   1.0
     5.4500000000000000    0.0000000000000000    0.0000000000000000
     0.0000000000000000    5.4500000000000000    0.0000000000000000
     0.0000000000000000    0.0000000000000000    5.4500000000000000
 Si
   8
Direct
   0.7500000000000000  0.7500000000000000  0.7500000000000000
   0.5000000000000000  0.0000000000000000  0.0000000000000000
   0.7500000000000000  0.2500000000000000  0.2500000000000000
   0.5000000000000000  0.5000000000000000  0.5000000000000000
   0.2500000000000000  0.7500000000000000  0.2500000000000000
   0.0000000000000000  0.0000000000000000  0.5000000000000000
   0.2500000000000000  0.2500000000000000  0.7500000000000000
   0.0000000000000000  0.5000000000000000  0.0000000000000000
