Generated using dynaphopy
1.0
       10.9000000000         0.0000000000         0.0000000000
        0.0000000000        10.9000000000         0.0000000000
        0.0000000000         0.0000000000        10.9000000000
Si 
64
Direct
0.375000000000000   0.375000000000000   0.375000000000000
0.875000000000000   0.375000000000000   0.375000000000000
0.375000000000000   0.875000000000000   0.375000000000000
0.875000000000000   0.875000000000000   0.375000000000000
0.375000000000000   0.375000000000000   0.875000000000000
0.875000000000000   0.375000000000000   0.875000000000000
0.375000000000000   0.875000000000000   0.875000000000000
0.875000000000000   0.875000000000000   0.875000000000000
0.250000000000000   0.000000000000000   0.000000000000000
0.750000000000000   0.000000000000000   0.000000000000000
0.250000000000000   0.500000000000000   0.000000000000000
0.750000000000000   0.500000000000000   0.000000000000000
0.250000000000000   0.000000000000000   0.500000000000000
0.750000000000000   0.000000000000000   0.500000000000000
0.250000000000000   0.500000000000000   0.500000000000000
0.750000000000000   0.500000000000000   0.500000000000000
0.375000000000000   0.125000000000000   0.125000000000000
0.875000000000000   0.125000000000000   0.125000000000000
0.375000000000000   0.625000000000000   0.125000000000000
0.875000000000000   0.625000000000000   0.125000000000000
0.375000000000000   0.125000000000000   0.625000000000000
0.875000000000000   0.125000000000000   0.625000000000000
0.375000000000000   0.625000000000000   0.625000000000000
0.875000000000000   0.625000000000000   0.625000000000000
0.250000000000000   0.250000000000000   0.250000000000000
0.750000000000000   0.250000000000000   0.250000000000000
0.250000000000000   0.750000000000000   0.250000000000000
0.750000000000000   0.750000000000000   0.250000000000000
0.250000000000000   0.250000000000000   0.750000000000000
0.750000000000000   0.250000000000000   0.750000000000000
0.250000000000000   0.750000000000000   0.750000000000000
0.750000000000000   0.750000000000000   0.750000000000000
0.125000000000000   0.375000000000000   0.125000000000000
0.625000000000000   0.375000000000000   0.125000000000000
0.125000000000000   0.875000000000000   0.125000000000000
0.625000000000000   0.875000000000000   0.125000000000000
0.125000000000000   0.375000000000000   0.625000000000000
0.625000000000000   0.375000000000000   0.625000000000000
0.125000000000000   0.875000000000000   0.625000000000000
0.625000000000000   0.875000000000000   0.625000000000000
0.000000000000000   0.000000000000000   0.250000000000000
0.500000000000000   0.000000000000000   0.250000000000000
0.000000000000000   0.500000000000000   0.250000000000000
0.500000000000000   0.500000000000000   0.250000000000000
0.000000000000000   0.000000000000000   0.750000000000000
0.500000000000000   0.000000000000000   0.750000000000000
0.000000000000000   0.500000000000000   0.750000000000000
0.500000000000000   0.500000000000000   0.750000000000000
0.125000000000000   0.125000000000000   0.375000000000000
0.625000000000000   0.125000000000000   0.375000000000000
0.125000000000000   0.625000000000000   0.375000000000000
0.625000000000000   0.625000000000000   0.375000000000000
0.125000000000000   0.125000000000000   0.875000000000000
0.625000000000000   0.125000000000000   0.875000000000000
0.125000000000000   0.625000000000000   0.875000000000000
0.625000000000000   0.625000000000000   0.875000000000000
0.000000000000000   0.250000000000000   0.000000000000000
0.500000000000000   0.250000000000000   0.000000000000000
0.000000000000000   0.750000000000000   0.000000000000000
0.500000000000000   0.750000000000000   0.000000000000000
0.000000000000000   0.250000000000000   0.500000000000000
0.500000000000000   0.250000000000000   0.500000000000000
0.000000000000000   0.750000000000000   0.500000000000000
0.500000000000000   0.750000000000000   0.500000000000000
