Ga N
1.0
        3.1900000572       0.000000000       0.0000000000
       -1.5950000286       2.762621076       0.0000000000
        0.0000000000       0.000000000       5.1890001297
   Ga    N
    2    2
Direct
     0.66666669         0.33333334         0.000000000
     0.33333331         0.66666663         0.500000000
     0.66666669         0.33333334         0.375000000
     0.33333331         0.66666663         0.875000000
