Ga N
1.0
        3.1900000572         0.0000000000         0.0000000000
       -1.5950000286         2.7626210876         0.0000000000
        0.0000000000         0.0000000000         5.1890001297
   Ga    N
    2    2
Direct
     0.666666687         0.333333343         0.000000000
     0.333333313         0.666666627         0.500000000
     0.666666687         0.333333343         0.375000000
     0.333333313         0.666666627         0.875000000
