Ag2Cu2O4                                 
   1.00000000000000     
 6.0615768472847344 0.0000000000000    -0.0089799621832398
 0.000000000000000  2.814083005924144   0.0000000000000000
-1.94175993509      0.000000000000000   5.39757575753155
   Ag   Cu   O 
     2     2     4
Direct
  0.0000000000000000  0.0000000000000000  0.0000000000000000
  0.5000000000000000  0.5000000000000000  0.0000000000000000
  0.0000000000000000  0.5000000000000000  0.5000000000000000
  0.5000000000000000  0.0000000000000000  0.5000000000000000
  0.3516123588593323  0.5000000000000000  0.2900275174711524
  0.6483876411406685  0.5000000000000000  0.7099724825288461
  0.8516123588593315  0.0000000000000000  0.2900275174711524
  0.1483876411406668  0.0000000000000000  0.7099724825288461
